p cnf 225 1404
1 -103 0
1 -104 0
103 -103 0
104 -104 0
18 -109 0
18 -110 0
109 -109 0
110 -110 0
35 -115 0
35 -116 0
115 -115 0
116 -116 0
52 -121 0
52 -122 0
121 -121 0
122 -122 0
69 -127 0
69 -128 0
127 -127 0
128 -128 0
86 -133 0
86 -134 0
133 -133 0
134 -134 0
2 -103 0
2 -104 0
103 -103 0
104 -104 0
19 -109 0
19 -110 0
109 -109 0
110 -110 0
36 -115 0
36 -116 0
115 -115 0
116 -116 0
53 -121 0
53 -122 0
121 -121 0
122 -122 0
70 -127 0
70 -128 0
127 -127 0
128 -128 0
87 -133 0
87 -134 0
133 -133 0
134 -134 0
3 -103 0
3 -104 0
103 -103 0
104 -104 0
20 -109 0
20 -110 0
109 -109 0
110 -110 0
37 -115 0
37 -116 0
115 -115 0
116 -116 0
54 -121 0
54 -122 0
121 -121 0
122 -122 0
71 -127 0
71 -128 0
127 -127 0
128 -128 0
88 -133 0
88 -134 0
133 -133 0
134 -134 0
4 -103 0
4 -104 0
103 -103 0
104 -104 0
21 -109 0
21 -110 0
109 -109 0
110 -110 0
38 -115 0
38 -116 0
115 -115 0
116 -116 0
55 -121 0
55 -122 0
121 -121 0
122 -122 0
72 -127 0
72 -128 0
127 -127 0
128 -128 0
89 -133 0
89 -134 0
133 -133 0
134 -134 0
5 -103 0
5 -104 0
103 -103 0
104 -104 0
22 -109 0
22 -110 0
109 -109 0
110 -110 0
39 -115 0
39 -116 0
115 -115 0
116 -116 0
56 -121 0
56 -122 0
121 -121 0
122 -122 0
73 -127 0
73 -128 0
127 -127 0
128 -128 0
90 -133 0
90 -134 0
133 -133 0
134 -134 0
6 -139 -103 0
-6 139 -103 0
6 139 -104 0
-6 -139 -104 0
23 -139 -109 0
-23 139 -109 0
23 139 -110 0
-23 -139 -110 0
40 -139 -115 0
-40 139 -115 0
40 139 -116 0
-40 -139 -116 0
57 -139 -121 0
-57 139 -121 0
57 139 -122 0
-57 -139 -122 0
74 -139 -127 0
-74 139 -127 0
74 139 -128 0
-74 -139 -128 0
91 -139 -133 0
-91 139 -133 0
91 139 -134 0
-91 -139 -134 0
7 -140 -103 0
-7 140 -103 0
7 140 -104 0
-7 -140 -104 0
24 -140 -109 0
-24 140 -109 0
24 140 -110 0
-24 -140 -110 0
41 -140 -115 0
-41 140 -115 0
41 140 -116 0
-41 -140 -116 0
58 -140 -121 0
-58 140 -121 0
58 140 -122 0
-58 -140 -122 0
75 -140 -127 0
-75 140 -127 0
75 140 -128 0
-75 -140 -128 0
92 -140 -133 0
-92 140 -133 0
92 140 -134 0
-92 -140 -134 0
8 -103 0
8 -104 0
103 -103 0
104 -104 0
25 -109 0
25 -110 0
109 -109 0
110 -110 0
42 -115 0
42 -116 0
115 -115 0
116 -116 0
59 -121 0
59 -122 0
121 -121 0
122 -122 0
76 -127 0
76 -128 0
127 -127 0
128 -128 0
93 -133 0
93 -134 0
133 -133 0
134 -134 0
9 -103 0
9 -104 0
103 -103 0
104 -104 0
26 -109 0
26 -110 0
109 -109 0
110 -110 0
43 -115 0
43 -116 0
115 -115 0
116 -116 0
60 -121 0
60 -122 0
121 -121 0
122 -122 0
77 -127 0
77 -128 0
127 -127 0
128 -128 0
94 -133 0
94 -134 0
133 -133 0
134 -134 0
10 -103 0
10 -104 0
103 -103 0
104 -104 0
27 -109 0
27 -110 0
109 -109 0
110 -110 0
44 -115 0
44 -116 0
115 -115 0
116 -116 0
61 -121 0
61 -122 0
121 -121 0
122 -122 0
78 -127 0
78 -128 0
127 -127 0
128 -128 0
95 -133 0
95 -134 0
133 -133 0
134 -134 0
11 -103 0
11 -104 0
103 -103 0
104 -104 0
28 -109 0
28 -110 0
109 -109 0
110 -110 0
45 -115 0
45 -116 0
115 -115 0
116 -116 0
62 -121 0
62 -122 0
121 -121 0
122 -122 0
79 -127 0
79 -128 0
127 -127 0
128 -128 0
96 -133 0
96 -134 0
133 -133 0
134 -134 0
12 -103 0
12 -104 0
103 -103 0
104 -104 0
29 -109 0
29 -110 0
109 -109 0
110 -110 0
46 -115 0
46 -116 0
115 -115 0
116 -116 0
63 -121 0
63 -122 0
121 -121 0
122 -122 0
80 -127 0
80 -128 0
127 -127 0
128 -128 0
97 -133 0
97 -134 0
133 -133 0
134 -134 0
-13 -103 0
-13 -104 0
103 -103 0
104 -104 0
-30 -109 0
-30 -110 0
109 -109 0
110 -110 0
-47 -115 0
-47 -116 0
115 -115 0
116 -116 0
-64 -121 0
-64 -122 0
121 -121 0
122 -122 0
-81 -127 0
-81 -128 0
127 -127 0
128 -128 0
-98 -133 0
-98 -134 0
133 -133 0
134 -134 0
14 -103 0
14 -104 0
103 -103 0
104 -104 0
31 -109 0
31 -110 0
109 -109 0
110 -110 0
48 -115 0
48 -116 0
115 -115 0
116 -116 0
65 -121 0
65 -122 0
121 -121 0
122 -122 0
82 -127 0
82 -128 0
127 -127 0
128 -128 0
99 -133 0
99 -134 0
133 -133 0
134 -134 0
15 -103 0
15 -104 0
103 -103 0
104 -104 0
32 -109 0
32 -110 0
109 -109 0
110 -110 0
49 -115 0
49 -116 0
115 -115 0
116 -116 0
66 -121 0
66 -122 0
121 -121 0
122 -122 0
83 -127 0
83 -128 0
127 -127 0
128 -128 0
100 -133 0
100 -134 0
133 -133 0
134 -134 0
-16 -103 0
-16 -104 0
103 -103 0
104 -104 0
-33 -109 0
-33 -110 0
109 -109 0
110 -110 0
-50 -115 0
-50 -116 0
115 -115 0
116 -116 0
-67 -121 0
-67 -122 0
121 -121 0
122 -122 0
-84 -127 0
-84 -128 0
127 -127 0
128 -128 0
-101 -133 0
-101 -134 0
133 -133 0
134 -134 0
-17 -103 0
-17 -104 0
103 -103 0
104 -104 0
-34 -109 0
-34 -110 0
109 -109 0
110 -110 0
-51 -115 0
-51 -116 0
115 -115 0
116 -116 0
-68 -121 0
-68 -122 0
121 -121 0
122 -122 0
-85 -127 0
-85 -128 0
127 -127 0
128 -128 0
-102 -133 0
-102 -134 0
133 -133 0
134 -134 0
-190 103 0
190 -103 0
-191 104 0
190 -104 0
-190 -103 0
-191 -104 0
-196 103 190 0
196 -103 0
196 -190 0
-197 104 191 0
197 -104 0
197 -191 0
-196 -109 0
-197 -110 0
-202 109 196 0
202 -109 0
202 -196 0
-203 110 197 0
203 -110 0
203 -197 0
-202 -115 0
-203 -116 0
-208 115 202 0
208 -115 0
208 -202 0
-209 116 203 0
209 -116 0
209 -203 0
-208 -121 0
-209 -122 0
-214 121 208 0
214 -121 0
214 -208 0
-215 122 209 0
215 -122 0
215 -209 0
-214 -127 0
-215 -128 0
-220 127 214 0
220 -127 0
220 -214 0
-221 128 215 0
221 -128 0
221 -215 0
-220 -133 0
-221 -134 0
220 0
221 0
1 -141 -105 0
-1 141 -105 0
1 141 -106 0
-1 -141 -106 0
18 -141 -111 0
-18 141 -111 0
18 141 -112 0
-18 -141 -112 0
35 -141 -117 0
-35 141 -117 0
35 141 -118 0
-35 -141 -118 0
52 -141 -123 0
-52 141 -123 0
52 141 -124 0
-52 -141 -124 0
69 -141 -129 0
-69 141 -129 0
69 141 -130 0
-69 -141 -130 0
86 -141 -135 0
-86 141 -135 0
86 141 -136 0
-86 -141 -136 0
2 -105 0
2 -106 0
105 -105 0
106 -106 0
19 -111 0
19 -112 0
111 -111 0
112 -112 0
36 -117 0
36 -118 0
117 -117 0
118 -118 0
53 -123 0
53 -124 0
123 -123 0
124 -124 0
70 -129 0
70 -130 0
129 -129 0
130 -130 0
87 -135 0
87 -136 0
135 -135 0
136 -136 0
3 -105 0
3 -106 0
105 -105 0
106 -106 0
20 -111 0
20 -112 0
111 -111 0
112 -112 0
37 -117 0
37 -118 0
117 -117 0
118 -118 0
54 -123 0
54 -124 0
123 -123 0
124 -124 0
71 -129 0
71 -130 0
129 -129 0
130 -130 0
88 -135 0
88 -136 0
135 -135 0
136 -136 0
4 -105 0
4 -106 0
105 -105 0
106 -106 0
21 -111 0
21 -112 0
111 -111 0
112 -112 0
38 -117 0
38 -118 0
117 -117 0
118 -118 0
55 -123 0
55 -124 0
123 -123 0
124 -124 0
72 -129 0
72 -130 0
129 -129 0
130 -130 0
89 -135 0
89 -136 0
135 -135 0
136 -136 0
5 -142 -105 0
-5 142 -105 0
5 142 -106 0
-5 -142 -106 0
22 -142 -111 0
-22 142 -111 0
22 142 -112 0
-22 -142 -112 0
39 -142 -117 0
-39 142 -117 0
39 142 -118 0
-39 -142 -118 0
56 -142 -123 0
-56 142 -123 0
56 142 -124 0
-56 -142 -124 0
73 -142 -129 0
-73 142 -129 0
73 142 -130 0
-73 -142 -130 0
90 -142 -135 0
-90 142 -135 0
90 142 -136 0
-90 -142 -136 0
6 -143 -105 0
-6 143 -105 0
6 143 -106 0
-6 -143 -106 0
23 -143 -111 0
-23 143 -111 0
23 143 -112 0
-23 -143 -112 0
40 -143 -117 0
-40 143 -117 0
40 143 -118 0
-40 -143 -118 0
57 -143 -123 0
-57 143 -123 0
57 143 -124 0
-57 -143 -124 0
74 -143 -129 0
-74 143 -129 0
74 143 -130 0
-74 -143 -130 0
91 -143 -135 0
-91 143 -135 0
91 143 -136 0
-91 -143 -136 0
7 -144 -105 0
-7 144 -105 0
7 144 -106 0
-7 -144 -106 0
24 -144 -111 0
-24 144 -111 0
24 144 -112 0
-24 -144 -112 0
41 -144 -117 0
-41 144 -117 0
41 144 -118 0
-41 -144 -118 0
58 -144 -123 0
-58 144 -123 0
58 144 -124 0
-58 -144 -124 0
75 -144 -129 0
-75 144 -129 0
75 144 -130 0
-75 -144 -130 0
92 -144 -135 0
-92 144 -135 0
92 144 -136 0
-92 -144 -136 0
8 -105 0
8 -106 0
105 -105 0
106 -106 0
25 -111 0
25 -112 0
111 -111 0
112 -112 0
42 -117 0
42 -118 0
117 -117 0
118 -118 0
59 -123 0
59 -124 0
123 -123 0
124 -124 0
76 -129 0
76 -130 0
129 -129 0
130 -130 0
93 -135 0
93 -136 0
135 -135 0
136 -136 0
9 -105 0
9 -106 0
105 -105 0
106 -106 0
26 -111 0
26 -112 0
111 -111 0
112 -112 0
43 -117 0
43 -118 0
117 -117 0
118 -118 0
60 -123 0
60 -124 0
123 -123 0
124 -124 0
77 -129 0
77 -130 0
129 -129 0
130 -130 0
94 -135 0
94 -136 0
135 -135 0
136 -136 0
10 -145 -105 0
-10 145 -105 0
10 145 -106 0
-10 -145 -106 0
27 -145 -111 0
-27 145 -111 0
27 145 -112 0
-27 -145 -112 0
44 -145 -117 0
-44 145 -117 0
44 145 -118 0
-44 -145 -118 0
61 -145 -123 0
-61 145 -123 0
61 145 -124 0
-61 -145 -124 0
78 -145 -129 0
-78 145 -129 0
78 145 -130 0
-78 -145 -130 0
95 -145 -135 0
-95 145 -135 0
95 145 -136 0
-95 -145 -136 0
11 -105 0
11 -106 0
105 -105 0
106 -106 0
28 -111 0
28 -112 0
111 -111 0
112 -112 0
45 -117 0
45 -118 0
117 -117 0
118 -118 0
62 -123 0
62 -124 0
123 -123 0
124 -124 0
79 -129 0
79 -130 0
129 -129 0
130 -130 0
96 -135 0
96 -136 0
135 -135 0
136 -136 0
12 -105 0
12 -106 0
105 -105 0
106 -106 0
29 -111 0
29 -112 0
111 -111 0
112 -112 0
46 -117 0
46 -118 0
117 -117 0
118 -118 0
63 -123 0
63 -124 0
123 -123 0
124 -124 0
80 -129 0
80 -130 0
129 -129 0
130 -130 0
97 -135 0
97 -136 0
135 -135 0
136 -136 0
13 -146 -105 0
-13 146 -105 0
13 146 -106 0
-13 -146 -106 0
30 -146 -111 0
-30 146 -111 0
30 146 -112 0
-30 -146 -112 0
47 -146 -117 0
-47 146 -117 0
47 146 -118 0
-47 -146 -118 0
64 -146 -123 0
-64 146 -123 0
64 146 -124 0
-64 -146 -124 0
81 -146 -129 0
-81 146 -129 0
81 146 -130 0
-81 -146 -130 0
98 -146 -135 0
-98 146 -135 0
98 146 -136 0
-98 -146 -136 0
14 -105 0
14 -106 0
105 -105 0
106 -106 0
31 -111 0
31 -112 0
111 -111 0
112 -112 0
48 -117 0
48 -118 0
117 -117 0
118 -118 0
65 -123 0
65 -124 0
123 -123 0
124 -124 0
82 -129 0
82 -130 0
129 -129 0
130 -130 0
99 -135 0
99 -136 0
135 -135 0
136 -136 0
15 -147 -105 0
-15 147 -105 0
15 147 -106 0
-15 -147 -106 0
32 -147 -111 0
-32 147 -111 0
32 147 -112 0
-32 -147 -112 0
49 -147 -117 0
-49 147 -117 0
49 147 -118 0
-49 -147 -118 0
66 -147 -123 0
-66 147 -123 0
66 147 -124 0
-66 -147 -124 0
83 -147 -129 0
-83 147 -129 0
83 147 -130 0
-83 -147 -130 0
100 -147 -135 0
-100 147 -135 0
100 147 -136 0
-100 -147 -136 0
16 -148 -105 0
-16 148 -105 0
16 148 -106 0
-16 -148 -106 0
33 -148 -111 0
-33 148 -111 0
33 148 -112 0
-33 -148 -112 0
50 -148 -117 0
-50 148 -117 0
50 148 -118 0
-50 -148 -118 0
67 -148 -123 0
-67 148 -123 0
67 148 -124 0
-67 -148 -124 0
84 -148 -129 0
-84 148 -129 0
84 148 -130 0
-84 -148 -130 0
101 -148 -135 0
-101 148 -135 0
101 148 -136 0
-101 -148 -136 0
17 -149 -105 0
-17 149 -105 0
17 149 -106 0
-17 -149 -106 0
34 -149 -111 0
-34 149 -111 0
34 149 -112 0
-34 -149 -112 0
51 -149 -117 0
-51 149 -117 0
51 149 -118 0
-51 -149 -118 0
68 -149 -123 0
-68 149 -123 0
68 149 -124 0
-68 -149 -124 0
85 -149 -129 0
-85 149 -129 0
85 149 -130 0
-85 -149 -130 0
102 -149 -135 0
-102 149 -135 0
102 149 -136 0
-102 -149 -136 0
-192 105 0
192 -105 0
-193 106 0
192 -106 0
-192 -105 0
-193 -106 0
-198 105 192 0
198 -105 0
198 -192 0
-199 106 193 0
199 -106 0
199 -193 0
-198 -111 0
-199 -112 0
-204 111 198 0
204 -111 0
204 -198 0
-205 112 199 0
205 -112 0
205 -199 0
-204 -117 0
-205 -118 0
-210 117 204 0
210 -117 0
210 -204 0
-211 118 205 0
211 -118 0
211 -205 0
-210 -123 0
-211 -124 0
-216 123 210 0
216 -123 0
216 -210 0
-217 124 211 0
217 -124 0
217 -211 0
-216 -129 0
-217 -130 0
-222 129 216 0
222 -129 0
222 -216 0
-223 130 217 0
223 -130 0
223 -217 0
-222 -135 0
-223 -136 0
222 0
223 0
-1 -107 0
-1 -108 0
107 -107 0
108 -108 0
-18 -113 0
-18 -114 0
113 -113 0
114 -114 0
-35 -119 0
-35 -120 0
119 -119 0
120 -120 0
-52 -125 0
-52 -126 0
125 -125 0
126 -126 0
-69 -131 0
-69 -132 0
131 -131 0
132 -132 0
-86 -137 0
-86 -138 0
137 -137 0
138 -138 0
2 -107 0
2 -108 0
107 -107 0
108 -108 0
19 -113 0
19 -114 0
113 -113 0
114 -114 0
36 -119 0
36 -120 0
119 -119 0
120 -120 0
53 -125 0
53 -126 0
125 -125 0
126 -126 0
70 -131 0
70 -132 0
131 -131 0
132 -132 0
87 -137 0
87 -138 0
137 -137 0
138 -138 0
3 -107 0
3 -108 0
107 -107 0
108 -108 0
20 -113 0
20 -114 0
113 -113 0
114 -114 0
37 -119 0
37 -120 0
119 -119 0
120 -120 0
54 -125 0
54 -126 0
125 -125 0
126 -126 0
71 -131 0
71 -132 0
131 -131 0
132 -132 0
88 -137 0
88 -138 0
137 -137 0
138 -138 0
4 -107 0
4 -108 0
107 -107 0
108 -108 0
21 -113 0
21 -114 0
113 -113 0
114 -114 0
38 -119 0
38 -120 0
119 -119 0
120 -120 0
55 -125 0
55 -126 0
125 -125 0
126 -126 0
72 -131 0
72 -132 0
131 -131 0
132 -132 0
89 -137 0
89 -138 0
137 -137 0
138 -138 0
5 -107 0
5 -108 0
107 -107 0
108 -108 0
22 -113 0
22 -114 0
113 -113 0
114 -114 0
39 -119 0
39 -120 0
119 -119 0
120 -120 0
56 -125 0
56 -126 0
125 -125 0
126 -126 0
73 -131 0
73 -132 0
131 -131 0
132 -132 0
90 -137 0
90 -138 0
137 -137 0
138 -138 0
6 -150 -107 0
-6 150 -107 0
6 150 -108 0
-6 -150 -108 0
23 -150 -113 0
-23 150 -113 0
23 150 -114 0
-23 -150 -114 0
40 -150 -119 0
-40 150 -119 0
40 150 -120 0
-40 -150 -120 0
57 -150 -125 0
-57 150 -125 0
57 150 -126 0
-57 -150 -126 0
74 -150 -131 0
-74 150 -131 0
74 150 -132 0
-74 -150 -132 0
91 -150 -137 0
-91 150 -137 0
91 150 -138 0
-91 -150 -138 0
7 -151 -107 0
-7 151 -107 0
7 151 -108 0
-7 -151 -108 0
24 -151 -113 0
-24 151 -113 0
24 151 -114 0
-24 -151 -114 0
41 -151 -119 0
-41 151 -119 0
41 151 -120 0
-41 -151 -120 0
58 -151 -125 0
-58 151 -125 0
58 151 -126 0
-58 -151 -126 0
75 -151 -131 0
-75 151 -131 0
75 151 -132 0
-75 -151 -132 0
92 -151 -137 0
-92 151 -137 0
92 151 -138 0
-92 -151 -138 0
8 -152 -107 0
-8 152 -107 0
8 152 -108 0
-8 -152 -108 0
25 -152 -113 0
-25 152 -113 0
25 152 -114 0
-25 -152 -114 0
42 -152 -119 0
-42 152 -119 0
42 152 -120 0
-42 -152 -120 0
59 -152 -125 0
-59 152 -125 0
59 152 -126 0
-59 -152 -126 0
76 -152 -131 0
-76 152 -131 0
76 152 -132 0
-76 -152 -132 0
93 -152 -137 0
-93 152 -137 0
93 152 -138 0
-93 -152 -138 0
9 -153 -107 0
-9 153 -107 0
9 153 -108 0
-9 -153 -108 0
26 -153 -113 0
-26 153 -113 0
26 153 -114 0
-26 -153 -114 0
43 -153 -119 0
-43 153 -119 0
43 153 -120 0
-43 -153 -120 0
60 -153 -125 0
-60 153 -125 0
60 153 -126 0
-60 -153 -126 0
77 -153 -131 0
-77 153 -131 0
77 153 -132 0
-77 -153 -132 0
94 -153 -137 0
-94 153 -137 0
94 153 -138 0
-94 -153 -138 0
10 -154 -107 0
-10 154 -107 0
10 154 -108 0
-10 -154 -108 0
27 -154 -113 0
-27 154 -113 0
27 154 -114 0
-27 -154 -114 0
44 -154 -119 0
-44 154 -119 0
44 154 -120 0
-44 -154 -120 0
61 -154 -125 0
-61 154 -125 0
61 154 -126 0
-61 -154 -126 0
78 -154 -131 0
-78 154 -131 0
78 154 -132 0
-78 -154 -132 0
95 -154 -137 0
-95 154 -137 0
95 154 -138 0
-95 -154 -138 0
11 -155 -107 0
-11 155 -107 0
11 155 -108 0
-11 -155 -108 0
28 -155 -113 0
-28 155 -113 0
28 155 -114 0
-28 -155 -114 0
45 -155 -119 0
-45 155 -119 0
45 155 -120 0
-45 -155 -120 0
62 -155 -125 0
-62 155 -125 0
62 155 -126 0
-62 -155 -126 0
79 -155 -131 0
-79 155 -131 0
79 155 -132 0
-79 -155 -132 0
96 -155 -137 0
-96 155 -137 0
96 155 -138 0
-96 -155 -138 0
12 -156 -107 0
-12 156 -107 0
12 156 -108 0
-12 -156 -108 0
29 -156 -113 0
-29 156 -113 0
29 156 -114 0
-29 -156 -114 0
46 -156 -119 0
-46 156 -119 0
46 156 -120 0
-46 -156 -120 0
63 -156 -125 0
-63 156 -125 0
63 156 -126 0
-63 -156 -126 0
80 -156 -131 0
-80 156 -131 0
80 156 -132 0
-80 -156 -132 0
97 -156 -137 0
-97 156 -137 0
97 156 -138 0
-97 -156 -138 0
13 -107 0
13 -108 0
107 -107 0
108 -108 0
30 -113 0
30 -114 0
113 -113 0
114 -114 0
47 -119 0
47 -120 0
119 -119 0
120 -120 0
64 -125 0
64 -126 0
125 -125 0
126 -126 0
81 -131 0
81 -132 0
131 -131 0
132 -132 0
98 -137 0
98 -138 0
137 -137 0
138 -138 0
14 -157 -107 0
-14 157 -107 0
14 157 -108 0
-14 -157 -108 0
31 -157 -113 0
-31 157 -113 0
31 157 -114 0
-31 -157 -114 0
48 -157 -119 0
-48 157 -119 0
48 157 -120 0
-48 -157 -120 0
65 -157 -125 0
-65 157 -125 0
65 157 -126 0
-65 -157 -126 0
82 -157 -131 0
-82 157 -131 0
82 157 -132 0
-82 -157 -132 0
99 -157 -137 0
-99 157 -137 0
99 157 -138 0
-99 -157 -138 0
15 -158 -107 0
-15 158 -107 0
15 158 -108 0
-15 -158 -108 0
32 -158 -113 0
-32 158 -113 0
32 158 -114 0
-32 -158 -114 0
49 -158 -119 0
-49 158 -119 0
49 158 -120 0
-49 -158 -120 0
66 -158 -125 0
-66 158 -125 0
66 158 -126 0
-66 -158 -126 0
83 -158 -131 0
-83 158 -131 0
83 158 -132 0
-83 -158 -132 0
100 -158 -137 0
-100 158 -137 0
100 158 -138 0
-100 -158 -138 0
16 -107 0
16 -108 0
107 -107 0
108 -108 0
33 -113 0
33 -114 0
113 -113 0
114 -114 0
50 -119 0
50 -120 0
119 -119 0
120 -120 0
67 -125 0
67 -126 0
125 -125 0
126 -126 0
84 -131 0
84 -132 0
131 -131 0
132 -132 0
101 -137 0
101 -138 0
137 -137 0
138 -138 0
17 -107 0
17 -108 0
107 -107 0
108 -108 0
34 -113 0
34 -114 0
113 -113 0
114 -114 0
51 -119 0
51 -120 0
119 -119 0
120 -120 0
68 -125 0
68 -126 0
125 -125 0
126 -126 0
85 -131 0
85 -132 0
131 -131 0
132 -132 0
102 -137 0
102 -138 0
137 -137 0
138 -138 0
-194 107 0
194 -107 0
-195 108 0
194 -108 0
-194 -107 0
-195 -108 0
-200 107 194 0
200 -107 0
200 -194 0
-201 108 195 0
201 -108 0
201 -195 0
-200 -113 0
-201 -114 0
-206 113 200 0
206 -113 0
206 -200 0
-207 114 201 0
207 -114 0
207 -201 0
-206 -119 0
-207 -120 0
-212 119 206 0
212 -119 0
212 -206 0
-213 120 207 0
213 -120 0
213 -207 0
-212 -125 0
-213 -126 0
-218 125 212 0
218 -125 0
218 -212 0
-219 126 213 0
219 -126 0
219 -213 0
-218 -131 0
-219 -132 0
-224 131 218 0
224 -131 0
224 -218 0
-225 132 219 0
225 -132 0
225 -219 0
-224 -137 0
-225 -138 0
224 0
225 0
-103 110 116 122 128 134 0
-104 0
-109 116 122 128 134 0
-110 103 0
-115 122 128 134 0
-116 103 109 0
-121 128 134 0
-122 103 109 115 0
-127 134 0
-128 103 109 115 121 0
-133 0
-134 103 109 115 121 127 0
-105 112 118 124 130 136 0
-106 0
-111 118 124 130 136 0
-112 105 0
-117 124 130 136 0
-118 105 111 0
-123 130 136 0
-124 105 111 117 0
-129 136 0
-130 105 111 117 123 0
-135 0
-136 105 111 117 123 129 0
-107 114 120 126 132 138 0
-108 0
-113 120 126 132 138 0
-114 107 0
-119 126 132 138 0
-120 107 113 0
-125 132 138 0
-126 107 113 119 0
-131 138 0
-132 107 113 119 125 0
-137 0
-138 107 113 119 125 131 0
